(set-info :source |printed by MathSAT|)
(declare-fun call_synapse.dirty_s () Int)
(declare-fun call_synapse.ite18 () Int)
(declare-fun param_e_s3.next () Bool)
(declare-fun call_synapse.valid_s.next () Int)
(declare-fun call_synapse.ite16 () Int)
(declare-fun call_synapse.ite8.next () Int)
(declare-fun call_First.flby () Int)
(declare-fun call_synapse.garde_s3.next () Bool)
(declare-fun call_synapse.ite7 () Int)
(declare-fun param_e_s2 () Bool)
(declare-fun call_synapse.ite10 () Int)
(declare-fun call_synapse.ite7.next () Int)
(declare-fun call_synapse.ite4 () Int)
(declare-fun _OK_.next () Bool)
(declare-fun env.next () Bool)
(declare-fun call_synapse.garde_s1.next () Bool)
(declare-fun call_synapse.ite16.next () Int)
(declare-fun call_First.First () Int)
(declare-fun call_synapse.ite2 () Int)
(declare-fun call_synapse.ite10.next () Int)
(declare-fun call_synapse.ite9.next () Int)
(declare-fun call_synapse.ite () Int)
(declare-fun call_synapse.ite11 () Int)
(declare-fun call_synapse.ite13.next () Int)
(declare-fun call_synapse.flby3 () Int)
(declare-fun call_synapse.ite14.next () Int)
(declare-fun call_synapse.ite3.next () Int)
(declare-fun call_synapse.ite12 () Int)
(declare-fun call_synapse.valid_s () Int)
(declare-fun call_excludes3.excludes.next () Bool)
(declare-fun call_synapse.mem_init_s.next () Int)
(declare-fun mem_init_s () Int)
(declare-fun param_e_s1.next () Bool)
(declare-fun call_synapse.ite15.next () Int)
(declare-fun call_First.flby.next () Int)
(declare-fun call_synapse.ite5 () Int)
(declare-fun call_synapse.flby.next () Int)
(declare-fun dirty_s () Int)
(declare-fun call_synapse.flby2.next () Int)
(declare-fun call_synapse.ite12.next () Int)
(declare-fun call_synapse.ite13 () Int)
(declare-fun call_synapse.invalid_s () Int)
(declare-fun call_synapse.ite14 () Int)
(declare-fun call_synapse.garde_s2.next () Bool)
(declare-fun call_synapse.ite17.next () Int)
(declare-fun env () Bool)
(declare-fun call_synapse.flby4 () Int)
(declare-fun call_excludes3.excludes () Bool)
(declare-fun call_synapse.mem_init_s () Int)
(declare-fun call_synapse.flby3.next () Int)
(declare-fun call_synapse.flby2 () Int)
(declare-fun call_Sofar.flby () Bool)
(declare-fun call_synapse.flby4.next () Int)
(declare-fun call_synapse.ite4.next () Int)
(declare-fun call_synapse.flby () Int)
(declare-fun param_e_s1 () Bool)
(declare-fun valid_s.next () Int)
(declare-fun call_Sofar.Sofar.next () Bool)
(declare-fun call_synapse.ite11.next () Int)
(declare-fun call_synapse.invalid_s.next () Int)
(declare-fun call_synapse.ite5.next () Int)
(declare-fun _OK_ () Bool)
(declare-fun call_synapse.ite17 () Int)
(declare-fun call_synapse.ite2.next () Int)
(declare-fun call_Sofar.flby.next () Bool)
(declare-fun param_e_s2.next () Bool)
(declare-fun call_synapse.ite8 () Int)
(declare-fun call_First.First.next () Int)
(declare-fun call_Sofar.Sofar () Bool)
(declare-fun call_synapse.ite6 () Int)
(declare-fun invalid_s.next () Int)
(declare-fun param_e_s3 () Bool)
(declare-fun call_synapse.ite18.next () Int)
(declare-fun mem_init_s.next () Int)
(declare-fun call_synapse.ite6.next () Int)
(declare-fun param_init_invalid_s.next () Int)
(declare-fun call_synapse.dirty_s.next () Int)
(declare-fun call_synapse.ite.next () Int)
(declare-fun invalid_s () Int)
(declare-fun dirty_s.next () Int)
(declare-fun valid_s () Int)
(define-fun .def_839 () Bool (= call_First.flby.next call_First.First.next))
(define-fun .def_837 () Bool (= call_Sofar.flby.next call_Sofar.Sofar.next))
(define-fun .def_832 () Bool (and param_e_s3.next param_e_s2.next))
(define-fun .def_829 () Bool (and param_e_s1.next param_e_s2.next))
(define-fun .def_830 () Bool (and param_e_s1.next .def_829))
(define-fun .def_831 () Bool (and param_e_s3.next .def_830))
(define-fun .def_833 () Bool (or .def_831 .def_832))
(define-fun .def_834 () Bool (not .def_833))
(define-fun .def_835 () Bool (= call_excludes3.excludes.next .def_834))
(define-fun .def_827 () Bool (= call_synapse.flby.next call_synapse.mem_init_s.next))
(define-fun .def_825 () Bool (= call_synapse.flby4.next call_synapse.dirty_s.next))
(define-fun .def_823 () Bool (= call_synapse.flby3.next call_synapse.valid_s.next))
(define-fun .def_821 () Bool (= call_synapse.flby2.next call_synapse.invalid_s.next))
(define-fun .def_817 () Bool (= call_synapse.ite16.next call_synapse.ite17.next))
(define-fun .def_818 () Bool (or param_e_s2.next .def_817))
(define-fun .def_814 () Bool (= call_synapse.ite14.next call_synapse.ite17.next))
(define-fun .def_805 () Bool (not param_e_s2.next))
(define-fun .def_815 () Bool (or .def_805 .def_814))
(define-fun .def_811 () Bool (= call_synapse.ite10.next call_synapse.ite11.next))
(define-fun .def_812 () Bool (or param_e_s2.next .def_811))
(define-fun .def_808 () Bool (= call_synapse.ite8.next call_synapse.ite11.next))
(define-fun .def_809 () Bool (or .def_805 .def_808))
(define-fun .def_804 () Bool (= call_synapse.ite2.next call_synapse.ite5.next))
(define-fun .def_806 () Bool (or .def_804 .def_805))
(define-fun .def_801 () Bool (= call_synapse.ite4.next call_synapse.ite5.next))
(define-fun .def_803 () Bool (or .def_801 param_e_s2.next))
(define-fun .def_807 () Bool (and .def_803 .def_806))
(define-fun .def_810 () Bool (and .def_807 .def_809))
(define-fun .def_813 () Bool (and .def_810 .def_812))
(define-fun .def_816 () Bool (and .def_813 .def_815))
(define-fun .def_819 () Bool (and .def_816 .def_818))
(define-fun .def_797 () Bool (= call_synapse.ite18.next call_synapse.ite17.next))
(define-fun .def_798 () Bool (or param_e_s1.next .def_797))
(define-fun .def_793 () Bool (= call_synapse.ite13.next call_synapse.ite18.next))
(define-fun .def_783 () Bool (not param_e_s1.next))
(define-fun .def_794 () Bool (or .def_783 .def_793))
(define-fun .def_790 () Bool (= call_synapse.ite12.next call_synapse.ite11.next))
(define-fun .def_791 () Bool (or param_e_s1.next .def_790))
(define-fun .def_786 () Bool (= call_synapse.ite7.next call_synapse.ite12.next))
(define-fun .def_787 () Bool (or .def_783 .def_786))
(define-fun .def_782 () Bool (= call_synapse.ite.next call_synapse.ite6.next))
(define-fun .def_784 () Bool (or .def_782 .def_783))
(define-fun .def_779 () Bool (= call_synapse.ite6.next call_synapse.ite5.next))
(define-fun .def_781 () Bool (or .def_779 param_e_s1.next))
(define-fun .def_785 () Bool (and .def_781 .def_784))
(define-fun .def_788 () Bool (and .def_785 .def_787))
(define-fun .def_792 () Bool (and .def_788 .def_791))
(define-fun .def_795 () Bool (and .def_792 .def_794))
(define-fun .def_799 () Bool (and .def_795 .def_798))
(define-fun .def_776 () Bool (= env.next call_Sofar.Sofar.next))
(define-fun .def_773 () Bool (= mem_init_s.next call_synapse.mem_init_s.next))
(define-fun .def_769 () Bool (= dirty_s.next call_synapse.dirty_s.next))
(define-fun .def_766 () Bool (= valid_s.next call_synapse.valid_s.next))
(define-fun .def_763 () Bool (= invalid_s.next call_synapse.invalid_s.next))
(define-fun .def_755 () Int (* (- 1) call_First.First.next))
(define-fun .def_756 () Int (+ dirty_s.next .def_755))
(define-fun .def_757 () Int (+ valid_s.next .def_756))
(define-fun .def_758 () Int (+ invalid_s.next .def_757))
(define-fun .def_759 () Bool (= .def_758 0))
(define-fun .def_744 () Bool (not env.next))
(define-fun .def_760 () Bool (or .def_744 .def_759))
(define-fun .def_761 () Bool (= _OK_.next .def_760))
(define-fun .def_764 () Bool (and .def_761 .def_763))
(define-fun .def_767 () Bool (and .def_764 .def_766))
(define-fun .def_770 () Bool (and .def_767 .def_769))
(define-fun .def_774 () Bool (and .def_770 .def_773))
(define-fun .def_777 () Bool (and .def_774 .def_776))
(define-fun .def_800 () Bool (and .def_777 .def_799))
(define-fun .def_820 () Bool (and .def_800 .def_819))
(define-fun .def_822 () Bool (and .def_820 .def_821))
(define-fun .def_824 () Bool (and .def_822 .def_823))
(define-fun .def_826 () Bool (and .def_824 .def_825))
(define-fun .def_828 () Bool (and .def_826 .def_827))
(define-fun .def_836 () Bool (and .def_828 .def_835))
(define-fun .def_838 () Bool (and .def_836 .def_837))
(define-fun .def_840 () Bool (and .def_838 .def_839))
(define-fun .def_593 () Bool (= call_First.flby call_First.First))
(define-fun .def_591 () Bool (= call_Sofar.flby call_Sofar.Sofar))
(define-fun .def_586 () Bool (and param_e_s3 param_e_s2))
(define-fun .def_583 () Bool (and param_e_s1 param_e_s2))
(define-fun .def_584 () Bool (and param_e_s1 .def_583))
(define-fun .def_585 () Bool (and param_e_s3 .def_584))
(define-fun .def_587 () Bool (or .def_585 .def_586))
(define-fun .def_588 () Bool (not .def_587))
(define-fun .def_589 () Bool (= call_excludes3.excludes .def_588))
(define-fun .def_581 () Bool (= call_synapse.flby call_synapse.mem_init_s))
(define-fun .def_579 () Bool (= call_synapse.flby4 call_synapse.dirty_s))
(define-fun .def_577 () Bool (= call_synapse.flby3 call_synapse.valid_s))
(define-fun .def_575 () Bool (= call_synapse.flby2 call_synapse.invalid_s))
(define-fun .def_571 () Bool (= call_synapse.ite16 call_synapse.ite17))
(define-fun .def_572 () Bool (or param_e_s2 .def_571))
(define-fun .def_568 () Bool (= call_synapse.ite14 call_synapse.ite17))
(define-fun .def_559 () Bool (not param_e_s2))
(define-fun .def_569 () Bool (or .def_559 .def_568))
(define-fun .def_565 () Bool (= call_synapse.ite10 call_synapse.ite11))
(define-fun .def_566 () Bool (or param_e_s2 .def_565))
(define-fun .def_562 () Bool (= call_synapse.ite8 call_synapse.ite11))
(define-fun .def_563 () Bool (or .def_559 .def_562))
(define-fun .def_558 () Bool (= call_synapse.ite5 call_synapse.ite2))
(define-fun .def_560 () Bool (or .def_558 .def_559))
(define-fun .def_554 () Bool (= call_synapse.ite4 call_synapse.ite5))
(define-fun .def_556 () Bool (or .def_554 param_e_s2))
(define-fun .def_561 () Bool (and .def_556 .def_560))
(define-fun .def_564 () Bool (and .def_561 .def_563))
(define-fun .def_567 () Bool (and .def_564 .def_566))
(define-fun .def_570 () Bool (and .def_567 .def_569))
(define-fun .def_573 () Bool (and .def_570 .def_572))
(define-fun .def_550 () Bool (= call_synapse.ite18 call_synapse.ite17))
(define-fun .def_551 () Bool (or param_e_s1 .def_550))
(define-fun .def_546 () Bool (= call_synapse.ite13 call_synapse.ite18))
(define-fun .def_533 () Bool (not param_e_s1))
(define-fun .def_547 () Bool (or .def_533 .def_546))
(define-fun .def_542 () Bool (= call_synapse.ite12 call_synapse.ite11))
(define-fun .def_543 () Bool (or param_e_s1 .def_542))
(define-fun .def_538 () Bool (= call_synapse.ite7 call_synapse.ite12))
(define-fun .def_539 () Bool (or .def_533 .def_538))
(define-fun .def_532 () Bool (= call_synapse.ite6 call_synapse.ite))
(define-fun .def_534 () Bool (or .def_532 .def_533))
(define-fun .def_528 () Bool (= call_synapse.ite6 call_synapse.ite5))
(define-fun .def_530 () Bool (or .def_528 param_e_s1))
(define-fun .def_535 () Bool (and .def_530 .def_534))
(define-fun .def_540 () Bool (and .def_535 .def_539))
(define-fun .def_544 () Bool (and .def_540 .def_543))
(define-fun .def_548 () Bool (and .def_544 .def_547))
(define-fun .def_552 () Bool (and .def_548 .def_551))
(define-fun .def_524 () Bool (= env call_Sofar.Sofar))
(define-fun .def_521 () Bool (= call_synapse.mem_init_s mem_init_s))
(define-fun .def_518 () Bool (= dirty_s call_synapse.dirty_s))
(define-fun .def_515 () Bool (= valid_s call_synapse.valid_s))
(define-fun .def_512 () Bool (= invalid_s call_synapse.invalid_s))
(define-fun .def_504 () Int (* (- 1) call_First.First))
(define-fun .def_505 () Int (+ dirty_s .def_504))
(define-fun .def_506 () Int (+ valid_s .def_505))
(define-fun .def_507 () Int (+ invalid_s .def_506))
(define-fun .def_508 () Bool (= .def_507 0))
(define-fun .def_493 () Bool (not env))
(define-fun .def_509 () Bool (or .def_493 .def_508))
(define-fun .def_510 () Bool (= _OK_ .def_509))
(define-fun .def_513 () Bool (and .def_510 .def_512))
(define-fun .def_516 () Bool (and .def_513 .def_515))
(define-fun .def_519 () Bool (and .def_516 .def_518))
(define-fun .def_522 () Bool (and .def_519 .def_521))
(define-fun .def_525 () Bool (and .def_522 .def_524))
(define-fun .def_553 () Bool (and .def_525 .def_552))
(define-fun .def_574 () Bool (and .def_553 .def_573))
(define-fun .def_576 () Bool (and .def_574 .def_575))
(define-fun .def_578 () Bool (and .def_576 .def_577))
(define-fun .def_580 () Bool (and .def_578 .def_579))
(define-fun .def_582 () Bool (and .def_580 .def_581))
(define-fun .def_590 () Bool (and .def_582 .def_589))
(define-fun .def_592 () Bool (and .def_590 .def_591))
(define-fun .def_594 () Bool (and .def_592 .def_593))
(define-fun .def_841 () Bool (and .def_594 .def_840))
(define-fun .def_740 () Bool (= call_First.First call_First.flby.next))
(define-fun .def_732 () Bool (<= 0 param_init_invalid_s.next))
(define-fun .def_734 () Bool (and .def_732 call_excludes3.excludes.next))
(define-fun .def_735 () Bool (and call_Sofar.Sofar .def_734))
(define-fun .def_737 () Bool (= .def_735 call_Sofar.flby.next))
(define-fun .def_729 () Bool (= call_synapse.ite18.next call_synapse.flby4.next))
(define-fun .def_725 () Bool (= call_synapse.ite12.next call_synapse.flby3.next))
(define-fun .def_721 () Bool (= call_synapse.ite6.next call_synapse.flby2.next))
(define-fun .def_717 () Bool (= call_synapse.mem_init_s call_synapse.flby.next))
(define-fun .def_695 () Bool (<= 1 call_synapse.invalid_s))
(define-fun .def_713 () Bool (= call_synapse.garde_s3.next .def_695))
(define-fun .def_710 () Bool (= call_synapse.ite9.next 0))
(define-fun .def_635 () Bool (not call_synapse.garde_s3.next))
(define-fun .def_711 () Bool (or .def_635 .def_710))
(define-fun .def_708 () Bool (= call_synapse.ite15.next 1))
(define-fun .def_709 () Bool (or .def_635 .def_708))
(define-fun .def_712 () Bool (and .def_709 .def_711))
(define-fun .def_714 () Bool (and .def_712 .def_713))
(define-fun .def_704 () Bool (<= 1 call_synapse.valid_s))
(define-fun .def_705 () Bool (= call_synapse.garde_s2.next .def_704))
(define-fun .def_701 () Bool (= call_synapse.ite8.next 0))
(define-fun .def_619 () Bool (not call_synapse.garde_s2.next))
(define-fun .def_702 () Bool (or .def_619 .def_701))
(define-fun .def_699 () Bool (= call_synapse.ite14.next 1))
(define-fun .def_700 () Bool (or .def_619 .def_699))
(define-fun .def_703 () Bool (and .def_700 .def_702))
(define-fun .def_706 () Bool (and .def_703 .def_705))
(define-fun .def_696 () Bool (= call_synapse.garde_s1.next .def_695))
(define-fun .def_693 () Bool (= call_synapse.ite13.next 0))
(define-fun .def_606 () Bool (not call_synapse.garde_s1.next))
(define-fun .def_694 () Bool (or .def_606 .def_693))
(define-fun .def_697 () Bool (and .def_694 .def_696))
(define-fun .def_689 () Bool (= call_synapse.dirty_s call_synapse.ite15.next))
(define-fun .def_690 () Bool (or call_synapse.garde_s3.next .def_689))
(define-fun .def_686 () Bool (= call_synapse.dirty_s call_synapse.ite13.next))
(define-fun .def_687 () Bool (or call_synapse.garde_s1.next .def_686))
(define-fun .def_683 () Bool (= call_synapse.dirty_s call_synapse.ite14.next))
(define-fun .def_684 () Bool (or call_synapse.garde_s2.next .def_683))
(define-fun .def_688 () Bool (and .def_684 .def_687))
(define-fun .def_691 () Bool (and .def_688 .def_690))
(define-fun .def_678 () Bool (= call_synapse.valid_s call_synapse.ite9.next))
(define-fun .def_679 () Bool (or call_synapse.garde_s3.next .def_678))
(define-fun .def_675 () Bool (= call_synapse.valid_s call_synapse.ite8.next))
(define-fun .def_676 () Bool (or call_synapse.garde_s2.next .def_675))
(define-fun .def_669 () Int (* (- 1) call_synapse.ite7.next))
(define-fun .def_670 () Int (+ call_synapse.valid_s .def_669))
(define-fun .def_671 () Bool (= .def_670 (- 1)))
(define-fun .def_672 () Bool (or .def_606 .def_671))
(define-fun .def_667 () Bool (= call_synapse.valid_s call_synapse.ite7.next))
(define-fun .def_668 () Bool (or call_synapse.garde_s1.next .def_667))
(define-fun .def_673 () Bool (and .def_668 .def_672))
(define-fun .def_677 () Bool (and .def_673 .def_676))
(define-fun .def_680 () Bool (and .def_677 .def_679))
(define-fun .def_662 () Bool (= call_synapse.dirty_s call_synapse.ite16.next))
(define-fun .def_663 () Bool (or param_e_s3.next .def_662))
(define-fun .def_659 () Bool (= call_synapse.ite15.next call_synapse.ite16.next))
(define-fun .def_646 () Bool (not param_e_s3.next))
(define-fun .def_660 () Bool (or .def_646 .def_659))
(define-fun .def_654 () Bool (= call_synapse.valid_s call_synapse.ite10.next))
(define-fun .def_655 () Bool (or param_e_s3.next .def_654))
(define-fun .def_651 () Bool (= call_synapse.ite9.next call_synapse.ite10.next))
(define-fun .def_652 () Bool (or .def_646 .def_651))
(define-fun .def_645 () Bool (= call_synapse.ite3.next call_synapse.ite4.next))
(define-fun .def_647 () Bool (or .def_645 .def_646))
(define-fun .def_642 () Bool (= call_synapse.invalid_s call_synapse.ite4.next))
(define-fun .def_644 () Bool (or .def_642 param_e_s3.next))
(define-fun .def_648 () Bool (and .def_644 .def_647))
(define-fun .def_653 () Bool (and .def_648 .def_652))
(define-fun .def_656 () Bool (and .def_653 .def_655))
(define-fun .def_661 () Bool (and .def_656 .def_660))
(define-fun .def_664 () Bool (and .def_661 .def_663))
(define-fun .def_638 () Bool (= call_synapse.invalid_s call_synapse.ite3.next))
(define-fun .def_639 () Bool (or call_synapse.garde_s3.next .def_638))
(define-fun .def_626 () Int (* (- 1) call_synapse.ite3.next))
(define-fun .def_630 () Int (+ call_synapse.dirty_s .def_626))
(define-fun .def_631 () Int (+ call_synapse.valid_s .def_630))
(define-fun .def_632 () Int (+ call_synapse.invalid_s .def_631))
(define-fun .def_633 () Bool (= .def_632 1))
(define-fun .def_636 () Bool (or .def_633 .def_635))
(define-fun .def_622 () Bool (= call_synapse.invalid_s call_synapse.ite2.next))
(define-fun .def_623 () Bool (or call_synapse.garde_s2.next .def_622))
(define-fun .def_610 () Int (* (- 1) call_synapse.ite2.next))
(define-fun .def_614 () Int (+ call_synapse.dirty_s .def_610))
(define-fun .def_615 () Int (+ call_synapse.valid_s .def_614))
(define-fun .def_616 () Int (+ call_synapse.invalid_s .def_615))
(define-fun .def_617 () Bool (= .def_616 1))
(define-fun .def_620 () Bool (or .def_617 .def_619))
(define-fun .def_600 () Int (* (- 1) call_synapse.ite.next))
(define-fun .def_603 () Int (+ call_synapse.dirty_s .def_600))
(define-fun .def_604 () Int (+ call_synapse.invalid_s .def_603))
(define-fun .def_605 () Bool (= .def_604 2))
(define-fun .def_607 () Bool (or .def_605 .def_606))
(define-fun .def_597 () Bool (= call_synapse.invalid_s call_synapse.ite.next))
(define-fun .def_599 () Bool (or .def_597 call_synapse.garde_s1.next))
(define-fun .def_608 () Bool (and .def_599 .def_607))
(define-fun .def_621 () Bool (and .def_608 .def_620))
(define-fun .def_624 () Bool (and .def_621 .def_623))
(define-fun .def_637 () Bool (and .def_624 .def_636))
(define-fun .def_640 () Bool (and .def_637 .def_639))
(define-fun .def_665 () Bool (and .def_640 .def_664))
(define-fun .def_681 () Bool (and .def_665 .def_680))
(define-fun .def_692 () Bool (and .def_681 .def_691))
(define-fun .def_698 () Bool (and .def_692 .def_697))
(define-fun .def_707 () Bool (and .def_698 .def_706))
(define-fun .def_715 () Bool (and .def_707 .def_714))
(define-fun .def_718 () Bool (and .def_715 .def_717))
(define-fun .def_722 () Bool (and .def_718 .def_721))
(define-fun .def_726 () Bool (and .def_722 .def_725))
(define-fun .def_730 () Bool (and .def_726 .def_729))
(define-fun .def_738 () Bool (and .def_730 .def_737))
(define-fun .def_741 () Bool (and .def_738 .def_740))
(define-fun .def_842 () Bool (and .def_741 .def_841))
(assert .def_842)
